c --- [ banner ] -------------------------------------------------------------
c 
c CaDiCaL Radically Simplified CDCL SAT Solver
c Copyright (c) 2016-2021 A. Biere, M. Fleury, N. Froleyks
c 
c Version 1.5.2 9c38a080b32c28d805e8e6ca21849856b0cda605
c g++ (Ubuntu 7.5.0-3ubuntu1~18.04) 7.5.0 -Wall -Wextra -O3 -DNDEBUG
c Wed Feb 16 23:15:36 EST 2022 Linux fac-vanhoeve01 5.4.0-99-generic x86_64
c 
c --- [ parsing input ] ------------------------------------------------------
c 
c reading DIMACS file from '<stdin>' (use '-h' for a list of common options)
c found 'p cnf 2692 7976' header
c parsed 7976 clauses in 0.00 seconds process time
c disconnecting from '<stdin>'
c after reading 106558 bytes 0.1 MB
c 
c --- [ options ] ------------------------------------------------------------
c 
c all options are set to their default value
c 
c --- [ solving ] ------------------------------------------------------------
c 
c time measured in process time since initialization
c 
c  seconds  reductions  redundant irredundant
c         MB    restarts       trail    variables
c          level   conflicts       glue      remaining
c 
c *  0.00  5  0 0   0    0    0  0% 0 7974 2618 97%
c {  0.01  5  0 0   0    0    0  0% 0 7974 2618 97%
c -  0.02  5 68 1  25  304  287 73% 7 7902 2618 97%
c -  0.06  5 40 2 118  906  745 82% 9 7902 2618 97%
c }  0.07  5 39 2 132 1002  825 82% 9 7902 2618 97%
c [  0.07  5  0 2 132 1002  825  0% 0 7902 2618 97%
c O  0.07  5 15 2 132 1003  826 96% 9 7902 2618 97%
c -  0.11  6 16 3 132 1806  951 93% 13 7902 2618 97%
c ]  0.19  6 15 3 133 3003 1628 92% 13 7902 2618 97%
c {  0.19  6 39 3 133 3003 1628 82% 9 7902 2618 97%
c F  0.19  6 39 3 134 3004 1629 82% 9 7902 2618 97%
c -  0.19  6 39 4 135 3007 1140 82% 9 7902 2618 97%
c s  0.20  6 36 4 145 3215 1341 84% 9 7902 2618 97%
c e  0.22  6 36 4 145 3215   67 84% 9 5684 885 33%
c s  0.23  6 36 4 145 3215   63 84% 9 5684 885 33%
c -  0.29  6 27 5 256 4507 1256 87% 9 5684 885 33%
c 2  0.31  6 26 5 298 5000 1702 85% 10 5684 885 33%
c p  0.31  6 26 5 298 5000 1709 85% 10 5684 885 33%
c #  0.36  6 25 5 409 6005 2654 84% 10 5684 885 33%
c -  0.37  6 25 6 431 6307 2202 83% 10 5684 885 33%
c 
c  seconds  reductions  redundant  irredundant
c         MB    restarts       trail     variables
c          level   conflicts       glue      remaining
c 
c }  0.39  6 23 6 440 7004 2819 80% 10 5684 885 33%
c [  0.39  6 15 6 440 7004 2819 281% 13 5684 885 33%
c -  0.45  6 21 7 441 8410 2748 201% 15 5684 885 33%
c I  0.53  6 23 7 442 10007 4133 165% 16 5684 885 33%
c -  0.58  7 25 8 443 10811 3221 154% 16 5684 885 33%
c -  0.75  7 28 9 445 13511 3607 134% 17 5684 885 33%
c s  0.78  7 28 9 445 13949 3961 131% 18 5684 885 33%
c w  0.79  7 28 9 445 13949 3959 131% 18 5684 885 33%
c s  0.80  7 28 9 445 13949 3959 131% 18 5684 885 33%
c ^  0.80  7 28 9 445 13949 3959 131% 18 5684 885 33%
c p  0.87  7 28 9 445 15000 4880 127% 18 5684 885 33%
c ]  0.87  7 28 9 445 15004 4884 127% 18 5684 885 33%
c {  0.87  7 23 9 445 15004 4884 80% 10 5684 885 33%
c B  0.87  7 23 9 446 15008 4888 80% 10 5684 885 33%
c -  0.95  7 22 10 542 16514 4109 81% 10 5684 885 33%
c -  1.12  7 22 11 829 19815 4732 83% 10 5684 885 33%
c W  1.19  7 22 11 902 21010 5840 84% 10 5684 885 33%
c -  1.31  7 21 12 1077 23421 5404 84% 10 5684 885 33%
c -  1.50  8 21 13 1373 27325 5830 84% 10 5684 885 33%
c F  1.54  8 21 13 1467 28011 6463 84% 10 5684 885 33%
c 
c  seconds  reductions     redundant  irredundant
c         MB     restarts         trail     variables
c          level      conflicts       glue      remaining
c 
c p  1.62  8 20 13 1475 30001 8175 83% 10 5684 885 33%
c s  1.63  8 20 13 1475 30053 8212 83% 10 5684 885 33%
c w  1.64  8 20 13 1475 30053 8212 83% 10 5684 885 33%
c s  1.66  8 20 13 1475 30053 8210 83% 10 5684 885 33%
c ^  1.66  8 20 13 1475 30053 8210 83% 10 5684 885 33%
c }  1.70  8 20 13 1508 31004 9103 83% 10 5684 885 33%
c [  1.70  8 28 13 1508 31004 9103 127% 18 5684 885 33%
c -  1.73  8 27 14 1508 31528 6363 125% 17 5684 885 33%
c B  1.96  8 25 14 1511 36013 10045 113% 17 5684 885 33%
c -  1.96  8 25 15 1511 36030 6233 113% 17 5684 885 33%
c -  2.24  8 27 16 1514 40832 5975 106% 18 5684 885 33%
c W  2.49  8 27 16 1515 45017 9396 103% 19 5684 885 33%
c -  2.56  8 27 17 1516 45933 6422 102% 19 5684 885 33%
c p  2.82  8 28 17 1516 50001 9620 100% 19 5684 885 33%
c -  2.92  8 28 18 1516 51334 7127 99% 19 5684 885 33%
c s  2.93  8 28 18 1516 51519 7291 99% 19 5684 885 33%
c w  2.94  8 28 18 1516 51519 7291 99% 19 5684 885 33%
c s  2.95  8 28 18 1516 51519 7290 99% 19 5684 885 33%
c ^  2.96  8 28 18 1516 51519 7290 99% 19 5684 885 33%
c O  3.18  8 28 18 1517 55019 9836 98% 20 5684 885 33%
c 
c  seconds  reductions     redundant  irredundant
c         MB     restarts         trail     variables
c          level      conflicts       glue      remaining
c 
c -  3.29  8 28 19 1519 57035 7252 97% 20 5684 885 33%
c ]  3.60  8 27 19 1523 63004 11681 95% 19 5684 885 33%
c {  3.60  8 20 19 1523 63004 11681 83% 10 5684 885 33%
c -  3.61  8 20 20 1532 63035 7262 83% 10 5684 885 33%
c B  3.73  8 20 20 1643 66021 9871 80% 10 5684 885 33%
c -  3.91  8 20 21 1867 69335 8440 80% 10 5684 885 33%
c p  4.20  8 20 21 2268 75004 13738 81% 10 5684 885 33%
c -  4.26  8 20 22 2362 75935 10175 81% 10 5684 885 33%
c W  4.40  8 20 22 2594 78023 12114 81% 10 5684 885 33%
c s  4.43  8 20 22 2623 78353 12345 81% 10 5684 885 33%
c w  4.45  8 20 22 2623 78353 12342 81% 10 5684 885 33%
c s  4.48  8 20 22 2623 78353 12338 81% 10 5684 885 33%
c ^  4.48  8 20 22 2623 78353 12338 81% 10 5684 885 33%
c -  4.73  9 20 23 2875 82836 11169 81% 10 5684 885 33%
c -  5.12  8 20 24 3270 90038 11572 82% 10 5684 885 33%
c #  5.17  8 20 24 3361 91025 12494 82% 10 5684 885 33%
c -  5.52  9 19 25 3692 97540 12255 81% 10 5684 885 33%
c p  5.96  9 19 25 4226 105004 19011 82% 10 5684 885 33%
c B  5.96  9 19 25 4226 105028 19034 82% 10 5684 885 33%
c -  5.99  9 19 26 4265 105342 12959 82% 10 5684 885 33%
c 
c  seconds  reductions       redundant  irredundant
c         MB     restarts           trail     variables
c          level      conflicts         glue      remaining
c 
c s  6.28  9 19 26 4602 110551 17552 81% 10 5684 885 33%
c e  6.32  9 19 26 4602 110551 3917 81% 10 8120 567 21%
c s  6.33  9 19 26 4602 110551 3917 81% 10 8120 567 21%
c ^  6.33  9 19 26 4602 110551 3917 81% 10 8120 567 21%
c -  6.45  8 19 27 4698 113444 5210 81% 10 8120 567 21%
c W  6.81  8 19 27 5047 120032 11201 82% 10 8120 567 21%
c -  6.91 10 19 28 5096 121847 10186 82% 10 8120 567 21%
c }  7.17 10 19 28 5427 127006 14931 83% 10 8120 567 21%
c [  7.17 10 27 28 5427 127006 14931 149% 19 8120 567 21%
c -  7.35 10 26 29 5427 130549 12295 142% 18 8120 567 21%
c B  7.63 10 25 29 5432 136033 16813 133% 18 8120 567 21%
c -  7.84 10 25 30 5434 139551 12777 128% 18 8120 567 21%
c p  7.87 10 25 30 5434 140004 13143 128% 18 8120 567 21%
c -  8.38 10 25 31 5435 148851 11634 120% 18 8120 567 21%
c W  8.70 10 25 31 5436 153037 14830 117% 18 8120 567 21%
c -  9.03 10 27 32 5436 158452 12695 114% 19 8120 567 21%
c s  9.43 10 29 32 5436 164313 18173 112% 20 8120 567 21%
c w  9.45 10 29 32 5436 164313 18159 112% 20 8120 567 21%
c s  9.48 10 29 32 5436 164313 18155 112% 20 8120 567 21%
c -  9.78 11 30 33 5437 168353 14053 110% 20 8120 567 21%
c 
c  seconds  reductions       redundant   irredundant
c         MB     restarts           trail      variables
c          level      conflicts          glue      remaining
c 
c I  9.96 11 30 33 5439 171042 16436 109% 20 8120 567 21%
c - 10.45 10 30 34 5443 178553 13523 107% 20 8120 567 21%
c p 10.55 10 29 34 5443 180004 14639 106% 20 8120 567 21%
c - 11.09 11 28 35 5450 189053 13294 103% 19 8120 567 21%
c B 11.15 11 28 35 5450 190043 14098 103% 19 8120 567 21%
c - 11.76 13 29 36 5451 199854 14880 101% 19 8120 567 21%
c W 12.55 13 29 36 5458 210046 23502 99% 20 8120 567 21%
c - 12.63 13 29 37 5458 210954 15309 98% 20 8120 567 21%
c - 13.49 13 29 38 5465 222356 14398 97% 20 8120 567 21%
c p 13.69 13 28 38 5465 225006 16168 96% 20 8120 567 21%
c O 14.13 13 28 38 5466 231047 20765 96% 20 8120 567 21%
c - 14.31 13 28 39 5466 234058 14845 95% 20 8120 567 21%
c - 15.02 13 26 40 5467 246058 15520 93% 19 8120 567 21%
c B 15.43 13 26 40 5468 253048 21320 92% 18 8120 567 21%
c ] 15.57 13 26 40 5468 255007 23079 92% 19 8120 567 21%
c { 15.57 13 19 40 5468 255007 23079 83% 10 8120 567 21%
c - 15.81 14 19 41 5873 258358 17344 82% 10 8120 567 21%
c - 16.53 14 19 42 6586 270959 18378 81% 10 8120 567 21%
c p 16.77 14 19 42 6720 275007 22116 82% 10 8120 567 21%
c F 16.84 14 19 42 6835 276049 23086 82% 10 8120 567 21%
c 
c  seconds  reductions       redundant  irredundant
c         MB     restarts           trail     variables
c          level      conflicts         glue      remaining
c 
c - 17.37 14 19 43 7419 283860 20187 82% 10 8120 567 21%
c - 18.20 15 19 44 8221 297060 20855 81% 10 8120 567 21%
c B 18.38 15 19 44 8359 300050 23577 81% 10 8120 567 21%
c - 19.11 15 19 45 9104 310560 22127 82% 10 8120 567 21%
c - 20.12 15 19 46 10151 324362 23297 82% 10 8120 567 21%
c W 20.25 15 19 46 10193 325051 23931 82% 10 8120 567 21%
c p 20.64 15 19 46 10751 330008 28573 82% 10 8120 567 21%
c - 21.25 15 19 47 11358 338464 24244 82% 10 8120 567 21%
c # 22.20 15 19 47 12475 351052 35683 82% 10 8120 567 21%
c - 22.35 15 19 48 12555 352864 24621 82% 10 8120 567 21%
c - 23.38 16 19 49 13369 367565 24882 81% 10 8120 567 21%
c B 24.03 16 18 49 13768 378053 34274 81% 10 8120 567 21%
c - 24.41 14 18 50 14177 382568 26314 81% 10 8120 567 21%
c p 24.98 14 19 50 14776 390008 33272 81% 10 8120 567 21%
c - 25.58 15 19 51 15256 397870 27695 81% 10 8120 567 21%
c W 26.33 15 19 51 15855 406055 35026 81% 10 8120 567 21%
c - 26.96 14 19 52 16513 413471 27693 80% 10 8120 567 21%
c - 28.30 15 19 53 18063 429371 29066 80% 10 8120 567 21%
c F 28.70 15 18 53 18324 435056 33993 80% 10 8120 567 21%
c - 29.58 15 18 54 18982 445573 29505 81% 10 8120 567 21%
c 
c  seconds  reductions        redundant  irredundant
c         MB      restarts           trail     variables
c          level       conflicts         glue      remaining
c 
c p 30.33 15 18 54 19816 455008 37754 81% 10 8120 567 21%
c - 30.98 14 18 55 20440 462073 30177 80% 10 8120 567 21%
c B 31.22 14 18 55 20699 465057 32877 80% 10 8120 567 21%
c - 32.36 17 18 56 21645 478875 31304 80% 10 8120 567 21%
c s 32.43 17 18 56 21645 478875 31194 80% 10 8120 567 21%
c w 32.52 17 18 56 21645 478875 31157 80% 10 8120 567 21%
c t 32.52 17 18 56 21645 478875 31156 80% 10 8120 567 21%
c - 33.79 15 18 57 22566 495977 31797 79% 10 8120 567 21%
c W 33.92 15 18 57 22566 496059 31853 79% 10 8120 567 21%
c } 35.18 15 18 57 23939 511007 45551 80% 10 8120 567 21%
c [ 35.18 15 26 57 23939 511007 45551 92% 19 8120 567 21%
c - 35.35 17 26 58 23939 513377 32951 92% 18 8120 567 21%
c p 36.15 17 25 58 23939 525009 41130 91% 18 8120 565 21%
c s 36.24 17 25 58 23939 525009 41092 91% 18 8110 565 21%
c W 36.66 18 26 58 23939 528060 43796 91% 18 8110 565 21%
c - 36.92 17 26 59 23939 531077 30516 91% 18 8110 565 21%
c - 38.49 15 27 60 23946 549077 29014 91% 20 8110 565 21%
c I 39.59 15 28 60 23953 561061 38993 90% 20 8110 565 21%
c - 40.18 19 28 61 23954 567378 30166 90% 20 8110 565 21%
c - 41.80 19 29 62 23962 585978 30118 90% 20 8110 565 21%
c 
c  seconds  reductions        redundant  irredundant
c         MB      restarts           trail     variables
c          level       conflicts         glue      remaining
c 
c s 42.68 19 28 62 23967 594190 36566 90% 20 8094 565 21%
c w 42.77 19 28 62 23967 594190 36560 90% 20 8094 565 21%
c s 42.85 19 28 62 23967 594190 36544 90% 20 8094 565 21%
c B 42.95 19 28 62 23968 595063 37203 90% 20 8094 565 21%
c p 43.37 19 29 62 23969 600009 41942 90% 20 8094 565 21%
c - 43.76 19 28 63 23969 604880 31320 89% 20 8094 565 21%
c - 45.43 19 27 64 23971 624080 30332 89% 19 8094 565 21%
c W 46.16 19 27 64 23976 630065 34553 89% 19 8094 565 21%
c - 47.32 19 28 65 23983 643580 30444 89% 19 8094 565 21%
c - 49.19 22 28 66 23991 663380 32108 89% 19 8094 565 21%
c O 49.42 22 28 66 23992 666066 34318 89% 20 8094 565 21%
c p 50.59 22 26 66 23999 680010 44241 88% 19 8094 565 21%
c - 50.89 22 26 67 24000 683480 29183 88% 19 8094 565 21%
c B 52.31 22 24 67 24001 703069 44634 87% 17 8094 565 21%
c - 52.40 22 24 68 24001 703882 30027 87% 18 8094 565 21%
c - 54.20 22 27 69 24002 724586 32939 88% 19 8094 565 21%
c W 56.01 22 28 69 24003 741070 48153 87% 19 8094 565 21%
c - 56.55 26 28 70 24003 745587 34233 87% 19 8094 565 21%
c p 58.66 26 27 70 24003 765010 50347 87% 19 8094 565 21%
c - 58.96 22 27 71 24003 766887 34250 87% 19 8094 565 21%
c 
c  seconds  reductions        redundant  irredundant
c         MB      restarts           trail     variables
c          level       conflicts         glue      remaining
c 
c I 60.33 22 27 71 24003 780072 44590 87% 19 8094 565 21%
c - 61.13 23 28 72 24003 788487 35336 87% 19 8094 565 21%
c - 63.31 28 30 73 24007 810388 37157 87% 20 8094 565 21%
c B 64.36 28 31 73 24012 820073 46303 88% 20 8094 565 21%
c - 65.80 23 30 74 24018 832588 37914 88% 20 8094 565 21%
c p 68.38 23 30 74 24028 855011 57330 88% 20 8094 565 21%
c - 68.44 23 30 75 24028 855088 37439 88% 20 8094 565 21%
c W 69.22 23 29 75 24032 861075 42201 88% 20 8094 565 21%
c - 70.95 23 28 76 24034 877889 33099 87% 19 8094 565 21%
c - 73.02 23 26 77 24041 900989 31722 87% 19 8094 565 21%
c O 73.19 23 26 77 24043 903076 33371 87% 19 8094 565 21%
c - 74.93 23 25 78 24052 924389 32825 87% 18 8094 565 21%
c B 76.92 23 23 78 24063 946077 47630 87% 17 8094 565 21%
c - 77.10 23 23 79 24064 948089 33685 87% 17 8094 565 21%
c p 77.25 23 23 79 24064 950011 35422 87% 17 8094 565 21%
c - 79.13 24 23 80 24066 972089 35587 87% 17 8094 565 21%
c W 81.12 24 23 80 24066 990079 50593 87% 17 8094 565 21%
c - 81.82 24 23 81 24066 996390 36039 87% 17 8094 565 21%
c s 81.89 24 23 81 24066 996390 35981 87% 17 8094 565 21%
c w 81.98 24 23 81 24066 996390 35964 87% 17 8094 565 21%
c 
c  seconds  reductions         redundant  irredundant
c         MB      restarts            trail     variables
c          level        conflicts         glue      remaining
c 
c - 84.38 24 22 82 24076 1020990 37588 87% 17 8094 565 21%
c ] 84.56 24 22 82 24078 1023007 39003 87% 17 8094 565 21%
c { 84.56 24 18 82 24078 1023007 39003 80% 10 8094 565 21%
c # 85.46 24 18 82 24495 1035081 49149 79% 10 8094 565 21%
c - 86.69 24 18 83 25609 1045892 40200 79% 10 8094 565 21%
c p 87.03 24 18 83 25811 1050011 43923 79% 10 8094 565 21%
c - 89.08 24 18 84 27315 1071095 44599 79% 10 8094 565 21%
c B 90.04 24 18 84 28241 1081082 53358 79% 10 8094 565 21%
c - 91.73 25 18 85 29377 1096597 46537 80% 10 8094 565 21%
c - 94.60 25 18 86 31533 1122397 47746 80% 10 8094 565 21%
c W 95.29 25 18 86 31751 1128084 52678 80% 10 8094 565 21%
c - 97.51 25 18 87 33189 1148497 48364 80% 10 8094 565 21%
c p 98.15 25 18 87 33638 1155011 54082 81% 10 8094 562 21%
c s 98.34 25 18 87 33638 1155011 53911 81% 10 8079 562 21%
c - 100.76 25 18 88 35343 1174897 50368 81% 10 8079 562 21%
c F 100.89 25 18 88 35453 1176087 51462 81% 10 8079 562 21%
c - 103.85 25 18 89 37440 1201600 51107 81% 10 8079 562 21%
c B 106.61 25 18 89 39603 1225089 71990 81% 10 8079 562 21%
c - 107.09 25 18 90 39849 1228601 52069 81% 10 8079 562 21%
c s 108.31 25 18 90 40529 1239613 61785 81% 10 8052 562 21%
c 
c  seconds   reductions         redundant  irredundant
c          MB      restarts            trail     variables
c           level        conflicts         glue      remaining
c 
c w 108.46 25 18 90 40529 1239613 61781 81% 10 8052 562 21%
c s 108.63 25 18 90 40529 1239613 61772 81% 10 8052 562 21%
c - 110.52 25 18 91 41576 1255901 52440 81% 10 8052 562 21%
c p 111.52 25 18 91 42382 1265011 60633 81% 10 8052 562 21%
c W 113.13 25 18 91 43425 1275093 69860 81% 10 8052 562 21%
c - 114.14 27 18 92 43928 1283505 53929 81% 10 8052 562 21%
c - 117.57 27 18 93 46322 1311408 54485 82% 10 8052 562 21%
c # 119.07 27 18 93 47261 1326094 67625 82% 10 8052 562 21%
c - 120.80 27 18 94 48185 1339610 55494 82% 10 8052 562 21%
c - 124.21 28 18 95 50312 1368110 56778 82% 10 8052 562 21%
c B 125.24 28 18 95 50847 1378095 65863 82% 10 8052 562 21%
c p 125.51 28 18 95 50970 1380012 67677 82% 10 8052 562 21%
c - 127.69 28 18 96 52147 1396910 57815 83% 10 8052 562 21%
c - 131.08 28 17 97 53801 1426012 57573 82% 10 8052 562 21%
c W 131.96 28 18 97 54232 1431096 62079 82% 10 8052 562 21%
c - 135.01 28 18 98 55962 1455412 59254 82% 10 8052 562 21%
c F 138.38 28 17 98 57686 1485097 84770 82% 10 8052 562 21%
c - 138.43 28 17 99 57686 1485115 58550 82% 10 8052 562 21%
c p 139.97 28 17 99 58528 1500012 71209 82% 10 8052 562 21%
c - 141.94 28 17 100 59700 1515115 58884 82% 10 8052 562 21%
c 
c  seconds    reductions         redundant  irredundant
c          MB       restarts            trail     variables
c           level         conflicts         glue      remaining
c 
c B 144.80 28 17 100 61418 1540098 80934 82% 10 8052 562 21%
c - 145.37 28 17 101 61568 1545415 59656 82% 10 8052 562 21%
c - 148.77 28 17 102 63098 1576015 60189 82% 10 8052 562 21%
c W 151.14 28 17 102 63792 1596099 77018 82% 10 8052 562 21%
c - 152.63 28 17 103 64578 1606915 60705 82% 10 8052 562 21%
c p 154.72 28 17 103 65859 1625013 76861 82% 10 8052 562 21%
c - 156.61 29 17 104 66860 1638115 63637 82% 10 8052 562 21%
c # 158.26 29 17 104 67664 1653100 77008 82% 10 8052 562 21%
c - 160.52 29 17 105 68678 1669615 64265 82% 10 8052 562 21%
c - 164.79 29 17 106 70886 1701415 65335 82% 10 8052 562 21%
c s 165.04 29 17 106 70886 1701415 65157 82% 10 8052 562 21%
c w 165.25 29 17 106 70886 1701415 65131 82% 10 8052 562 21%
c B 166.33 29 17 106 71424 1711102 73436 82% 10 8052 562 21%
c - 169.21 29 17 107 72720 1733516 66322 82% 10 8052 562 21%
c p 171.74 29 17 107 73737 1755017 84464 82% 10 8052 561 21%
c s 172.05 29 17 107 73737 1755017 84387 82% 10 8047 561 21%
c - 173.69 29 17 108 74463 1765917 66258 82% 10 8047 561 21%
c W 174.59 29 17 108 74706 1770103 69976 82% 10 8047 561 21%
c - 178.19 29 17 109 76489 1798617 67249 81% 10 8047 561 21%
c F 181.93 29 16 109 77928 1830104 94944 81% 10 8047 561 21%
c 
c  seconds    reductions         redundant  irredundant
c          MB       restarts            trail     variables
c           level         conflicts         glue      remaining
c 
c - 182.27 29 16 110 78105 1831617 68720 81% 10 8047 561 21%
c s 185.67 29 17 110 79871 1854919 89405 81% 10 8036 561 21%
c w 185.85 29 17 110 79871 1854919 89403 81% 10 8036 561 21%
c s 186.19 29 17 110 79871 1854919 89397 81% 10 8036 561 21%
c - 187.79 32 17 111 80566 1864922 70196 81% 10 8036 561 21%
c p 190.95 32 17 111 81905 1890018 91790 82% 10 8036 560 21%
c B 191.23 32 17 111 82087 1891106 92746 82% 10 8036 560 21%
c - 192.58 32 17 112 82777 1898522 70297 82% 10 8031 560 21%
c - 197.27 32 17 113 84839 1932423 71472 82% 10 8031 560 21%
c W 200.57 32 17 113 86319 1953110 89423 82% 10 8031 560 21%
c s 202.29 32 17 113 86870 1962454 97551 82% 10 8020 560 21%
c w 202.46 32 17 113 86870 1962454 97545 82% 10 8020 560 21%
c s 202.83 32 17 113 86870 1962454 97540 82% 10 8020 560 21%
c - 203.47 32 17 114 87005 1966626 72115 82% 10 8020 560 21%
c - 208.40 32 17 115 89299 2001126 72967 82% 10 8020 560 21%
c # 210.27 32 16 115 90127 2016116 85475 83% 10 8020 560 21%
c p 212.14 32 16 115 90825 2030018 97413 82% 10 8020 560 21%
c - 213.14 32 16 116 91223 2035929 72946 83% 10 8020 560 21%
c } 214.27 32 16 116 91745 2047008 81672 81% 10 8020 560 21%
c [ 214.27 32 22 116 91745 2047008 81672 87% 17 8020 560 21%
c 
c  seconds    reductions         redundant  irredundant
c          MB       restarts            trail     variables
c           level         conflicts         glue      remaining
c 
c - 216.84 32 20 117 91755 2071030 68187 83% 16 8020 560 21%
c I 217.92 32 20 117 91760 2080118 74967 81% 15 8020 560 21%
c - 220.99 26 23 118 91764 2106431 71708 83% 17 8020 560 21%
c - 226.30 26 24 119 91779 2142133 68110 85% 18 8020 560 21%
c B 226.74 26 24 119 91779 2145119 70546 85% 18 8020 560 21%
c p 230.51 26 24 119 91794 2175018 94760 86% 18 8020 560 21%
c - 231.03 26 25 120 91794 2178134 65630 86% 18 8020 560 21%
c W 236.04 26 25 120 91796 2211120 90396 86% 19 8020 560 21%
c - 236.81 32 25 121 91796 2214435 63567 86% 19 8020 560 21%
c - 241.51 32 25 122 91797 2251035 63141 87% 19 8020 560 21%
c O 245.46 32 25 122 91797 2278122 85103 87% 19 8020 560 21%
c - 246.78 32 24 123 91797 2287937 66053 87% 19 8020 560 21%
c p 251.27 32 23 123 91798 2325020 95884 86% 17 8020 560 21%
c - 251.36 32 23 124 91798 2325138 66096 86% 17 8020 560 21%
c B 253.94 32 22 124 91798 2346123 84464 85% 17 8020 560 21%
c - 256.18 32 25 125 91798 2362640 71680 86% 18 8020 560 21%
c - 262.33 39 28 126 91798 2400442 74373 86% 19 8020 560 21%
c W 265.42 39 29 126 91798 2415124 87653 86% 19 8020 560 21%
c - 269.89 40 29 127 91805 2438542 75044 86% 20 8020 560 21%
c - 277.19 32 29 128 91823 2476942 74136 87% 20 8020 560 21%
c 
c  seconds    reductions         redundant  irredundant
c          MB       restarts            trail     variables
c           level         conflicts         glue      remaining
c 
c p 277.70 32 29 128 91826 2480020 76833 87% 20 8020 560 21%
c I 278.60 32 29 128 91827 2485125 80936 87% 20 8020 560 21%
c - 282.65 40 28 129 91834 2515642 74833 87% 20 8020 560 21%
c - 288.42 32 28 130 91851 2554643 71033 87% 20 8020 560 21%
c s 288.69 32 28 130 91851 2554643 70906 87% 20 8020 560 21%
c w 288.95 32 28 130 91851 2554643 70871 87% 20 8020 560 21%
c B 289.18 32 28 130 91852 2556127 72134 87% 20 8020 560 21%
c - 294.19 35 30 131 91861 2593944 70703 87% 21 8020 560 21%
c W 299.94 35 31 131 91863 2628128 101193 88% 22 8020 560 21%
c - 301.04 42 31 132 91867 2633544 73398 88% 22 8020 560 21%
c p 302.07 42 31 132 91869 2640020 78576 88% 22 8020 560 21%
c - 307.24 42 31 133 91885 2673446 72808 88% 22 8020 560 21%
c O 311.32 42 30 133 91892 2701130 95321 88% 22 8020 560 21%
c - 312.86 42 29 134 91895 2713647 72858 88% 21 8020 560 21%
c - 317.94 26 25 135 91914 2754147 68158 87% 19 8020 560 21%
c B 320.43 26 23 135 91922 2775131 81947 87% 18 8020 560 21%
c - 322.89 31 25 136 91924 2794947 72074 87% 18 8020 560 21%
c p 324.08 31 25 136 91924 2805021 80992 87% 18 8020 560 21%
c - 328.00 37 24 137 91925 2836049 74668 87% 18 8020 560 21%
c W 330.52 37 24 137 91925 2850134 86766 87% 18 8020 560 21%
c 
c  seconds    reductions         redundant  irredundant
c          MB       restarts            trail     variables
c           level         conflicts         glue      remaining
c 
c - 334.77 37 24 138 91925 2877451 74564 87% 18 8020 560 21%
c - 341.09 37 22 139 91940 2919151 74564 87% 17 8020 560 21%
c I 342.09 37 23 139 91941 2926135 80603 87% 17 8020 560 21%
c - 346.59 39 23 140 91956 2961153 75984 87% 17 8020 560 21%
c p 348.48 39 23 140 91956 2975021 88315 87% 17 8020 560 21%
c B 353.74 39 25 140 91971 3003140 110999 87% 18 8020 560 21%
c - 353.86 39 25 141 91971 3003453 76291 87% 18 8020 560 21%
c - 359.09 39 27 142 91987 3046053 73765 87% 20 8020 560 21%
c ] 364.58 39 28 142 91988 3081140 102543 87% 21 8020 560 21%
c 1 364.58 39 28 142 91988 3081140 102543 87% 21 8020 560 21%
c 
c --- [ result ] -------------------------------------------------------------
c 
s SATISFIABLE
v -1 -2 -3 -4 -5 -6 -7 -8 -9 -10 -11 -12 -13 -14 -15 16 -17 18 -19 20 21 -22
v -23 24 -25 -26 -27 -28 -29 -30 -31 -32 -33 -34 -35 -36 -37 -38 -39 -40 -41
v -42 -43 -44 -45 -46 47 -48 -49 -50 -51 -52 -53 -54 -55 -56 -57 -58 -59 -60
v -61 -62 -63 -64 -65 -66 -67 -68 69 70 -71 72 73 -74 -75 -76 77 -78 -79 80
v -81 -82 -83 -84 -85 -86 -87 -88 -89 -90 -91 -92 -93 -94 -95 -96 97 -98 -99
v 100 -101 -102 103 -104 -105 -106 107 -108 -109 -110 111 -112 -113 -114 -115
v -116 -117 -118 -119 -120 -121 -122 -123 -124 -125 -126 -127 -128 -129 -130
v 131 -132 133 -134 135 -136 137 -138 -139 140 141 -142 -143 -144 -145 -146
v -147 -148 -149 -150 -151 -152 153 -154 -155 -156 -157 158 -159 -160 161 162
v -163 164 -165 -166 167 168 -169 -170 -171 -172 173 -174 -175 -176 177 -178
v 179 180 -181 -182 -183 -184 -185 -186 -187 -188 -189 -190 -191 -192 -193
v -194 -195 -196 -197 198 -199 -200 -201 -202 -203 -204 -205 -206 -207 -208
v -209 210 -211 212 -213 -214 -215 -216 -217 -218 -219 -220 -221 -222 -223
v -224 225 -226 -227 -228 -229 -230 231 232 233 234 -235 -236 -237 -238 -239
v 240 -241 -242 -243 -244 -245 -246 -247 -248 -249 -250 -251 252 253 254 -255
v -256 257 258 259 -260 -261 262 -263 264 265 -266 267 -268 -269 -270 -271
v -272 273 -274 -275 276 -277 278 -279 -280 281 -282 -283 -284 -285 -286 -287
v 288 289 -290 -291 292 293 294 -295 -296 -297 -298 -299 300 301 302 303 -304
v -305 -306 307 308 309 -310 -311 312 -313 -314 315 316 317 -318 -319 320 -321
v -322 -323 -324 -325 326 327 328 329 330 331 332 333 334 335 336 337 338 339
v 340 341 342 343 344 345 346 347 348 349 350 351 352 353 354 355 356 357 358
v 359 360 361 362 363 364 365 366 367 368 369 370 371 372 373 374 375 376 377
v 378 379 380 381 382 383 384 385 386 387 388 389 390 391 392 393 394 395 396
v 397 398 -399 -400 401 402 403 404 405 406 407 408 409 410 411 412 413 414
v 415 416 417 418 419 420 421 422 423 424 425 426 427 428 429 430 431 432 433
v 434 435 436 437 438 439 440 441 442 443 444 445 446 447 448 449 450 451 452
v 453 454 455 456 457 458 459 460 461 462 463 464 465 466 467 468 469 470 471
v 472 -473 -474 -475 476 477 478 479 480 481 482 483 484 485 486 487 488 489
v 490 491 492 493 494 495 496 497 498 499 500 501 502 503 504 505 506 507 508
v 509 510 511 512 513 514 515 516 517 518 519 520 521 522 523 524 525 526 527
v 528 529 530 531 532 533 534 535 536 537 538 539 540 541 542 543 544 545 546
v -547 -548 -549 -550 -551 -552 553 554 555 556 557 558 559 560 561 562 563
v 564 565 566 567 568 569 570 571 572 573 574 575 576 577 578 579 580 581 582
v 583 584 585 586 587 588 589 590 591 592 593 594 595 596 597 598 599 600 601
v 602 603 604 605 606 607 608 609 610 611 612 613 614 615 616 617 618 619 620
v -621 -622 -623 -624 -625 -626 -627 628 629 630 631 632 633 634 635 636 637
v 638 639 640 641 642 643 644 645 646 647 648 649 650 651 652 653 654 655 656
v 657 658 659 660 661 662 663 664 665 666 667 668 669 670 671 672 673 674 675
v 676 677 678 679 680 681 682 683 684 685 686 687 688 689 690 691 692 693 694
v -695 -696 -697 -698 -699 -700 -701 -702 703 704 705 706 707 708 709 710 711
v 712 713 714 715 716 717 718 719 720 721 722 723 724 725 726 727 728 729 730
v 731 732 733 734 735 736 737 738 739 740 741 742 743 744 745 746 747 748 749
v 750 751 752 753 754 755 756 757 758 759 760 761 762 763 764 765 766 767 768
v -769 -770 -771 -772 -773 -774 -775 -776 -777 -778 -779 780 781 782 783 784
v 785 786 787 788 789 790 791 792 793 794 795 796 797 798 799 800 801 802 803
v 804 805 806 807 808 809 810 811 812 813 814 815 816 817 818 819 820 821 822
v 823 824 825 826 827 828 829 830 831 832 833 834 835 836 837 838 839 840 841
v 842 -843 -844 -845 -846 -847 -848 -849 -850 -851 -852 -853 -854 -855 856 857
v 858 859 860 861 862 863 864 865 866 867 868 869 870 871 872 873 874 875 876
v 877 878 879 880 881 882 883 884 885 886 887 888 889 890 891 892 893 894 895
v 896 897 898 899 900 901 902 903 904 905 906 907 908 909 910 911 912 913 914
v 915 916 -917 -918 -919 -920 -921 -922 -923 -924 -925 -926 -927 -928 -929
v -930 931 932 933 934 935 936 937 938 939 940 941 942 943 944 945 946 947 948
v 949 950 951 952 953 954 955 956 957 958 959 960 961 962 963 964 965 966 967
v 968 969 970 971 972 973 974 975 976 977 978 979 980 981 982 983 984 985 986
v 987 988 989 990 -991 -992 -993 -994 -995 -996 -997 -998 -999 -1000 -1001
v -1002 -1003 -1004 -1005 -1006 1007 1008 1009 1010 1011 1012 1013 1014 1015
v 1016 1017 1018 1019 1020 1021 1022 1023 1024 1025 1026 1027 1028 1029 1030
v 1031 1032 1033 1034 1035 1036 1037 1038 1039 1040 1041 1042 1043 1044 1045
v 1046 1047 1048 1049 1050 1051 1052 1053 1054 1055 1056 1057 1058 1059 1060
v 1061 1062 1063 1064 -1065 -1066 -1067 -1068 -1069 -1070 -1071 -1072 -1073
v -1074 -1075 -1076 -1077 -1078 -1079 -1080 -1081 -1082 -1083 -1084 -1085
v -1086 1087 1088 1089 1090 1091 1092 1093 1094 1095 1096 1097 1098 1099 1100
v 1101 1102 1103 1104 1105 1106 1107 1108 1109 1110 1111 1112 1113 1114 1115
v 1116 1117 1118 1119 1120 1121 1122 1123 1124 1125 1126 1127 1128 1129 1130
v 1131 1132 1133 1134 1135 1136 1137 1138 -1139 -1140 -1141 -1142 -1143 -1144
v -1145 -1146 -1147 -1148 -1149 -1150 -1151 -1152 -1153 -1154 -1155 -1156
v -1157 -1158 -1159 -1160 -1161 -1162 -1163 1164 1165 1166 1167 1168 1169 1170
v 1171 1172 1173 1174 1175 1176 1177 1178 1179 1180 1181 1182 1183 1184 1185
v 1186 1187 1188 1189 1190 1191 1192 1193 1194 1195 1196 1197 1198 1199 1200
v 1201 1202 1203 1204 1205 1206 1207 1208 1209 1210 1211 1212 -1213 -1214
v -1215 -1216 -1217 -1218 -1219 -1220 -1221 -1222 -1223 -1224 -1225 -1226
v -1227 -1228 -1229 -1230 -1231 -1232 -1233 -1234 -1235 -1236 -1237 -1238
v -1239 1240 1241 1242 1243 1244 1245 1246 1247 1248 1249 1250 1251 1252 1253
v 1254 1255 1256 1257 1258 1259 1260 1261 1262 1263 1264 1265 1266 1267 1268
v 1269 1270 1271 1272 1273 1274 1275 1276 1277 1278 1279 1280 1281 1282 1283
v 1284 1285 1286 -1287 -1288 -1289 -1290 -1291 -1292 -1293 -1294 -1295 -1296
v -1297 -1298 -1299 -1300 -1301 -1302 -1303 -1304 -1305 -1306 -1307 -1308
v -1309 -1310 -1311 -1312 -1313 -1314 -1315 -1316 1317 1318 1319 1320 1321
v 1322 1323 1324 1325 1326 1327 1328 1329 1330 1331 1332 1333 1334 1335 1336
v 1337 1338 1339 1340 1341 1342 1343 1344 1345 1346 1347 1348 1349 1350 1351
v 1352 1353 1354 1355 1356 1357 1358 1359 1360 -1361 -1362 -1363 -1364 -1365
v -1366 -1367 -1368 -1369 -1370 -1371 -1372 -1373 -1374 -1375 -1376 -1377
v -1378 -1379 -1380 -1381 -1382 -1383 -1384 -1385 -1386 -1387 -1388 -1389
v -1390 -1391 -1392 -1393 -1394 -1395 -1396 -1397 1398 1399 1400 1401 1402
v 1403 1404 1405 1406 1407 1408 1409 1410 1411 1412 1413 1414 1415 1416 1417
v 1418 1419 1420 1421 1422 1423 1424 1425 1426 1427 1428 1429 1430 1431 1432
v 1433 1434 -1435 -1436 -1437 -1438 -1439 -1440 -1441 -1442 -1443 -1444 -1445
v -1446 -1447 -1448 -1449 -1450 -1451 -1452 -1453 -1454 -1455 -1456 -1457
v -1458 -1459 -1460 -1461 -1462 -1463 -1464 -1465 -1466 -1467 -1468 -1469
v -1470 -1471 -1472 1473 1474 1475 1476 1477 1478 1479 1480 1481 1482 1483
v 1484 1485 1486 1487 1488 1489 1490 1491 1492 1493 1494 1495 1496 1497 1498
v 1499 1500 1501 1502 1503 1504 1505 1506 1507 1508 -1509 -1510 -1511 -1512
v -1513 -1514 -1515 -1516 -1517 -1518 -1519 -1520 -1521 -1522 -1523 -1524
v -1525 -1526 -1527 -1528 -1529 -1530 -1531 -1532 -1533 -1534 -1535 -1536
v -1537 -1538 -1539 -1540 -1541 -1542 -1543 -1544 -1545 -1546 -1547 -1548
v -1549 1550 1551 1552 1553 1554 1555 1556 1557 1558 1559 1560 1561 1562 1563
v 1564 1565 1566 1567 1568 1569 1570 1571 1572 1573 1574 1575 1576 1577 1578
v 1579 1580 1581 1582 -1583 -1584 -1585 -1586 -1587 -1588 -1589 -1590 -1591
v -1592 -1593 -1594 -1595 -1596 -1597 -1598 -1599 -1600 -1601 -1602 -1603
v -1604 -1605 -1606 -1607 -1608 -1609 -1610 -1611 -1612 -1613 -1614 -1615
v -1616 -1617 -1618 -1619 -1620 -1621 -1622 -1623 -1624 1625 1626 1627 1628
v 1629 1630 1631 1632 1633 1634 1635 1636 1637 1638 1639 1640 1641 1642 1643
v 1644 1645 1646 1647 1648 1649 1650 1651 1652 1653 1654 1655 1656 -1657 -1658
v -1659 -1660 -1661 -1662 -1663 -1664 -1665 -1666 -1667 -1668 -1669 -1670
v -1671 -1672 -1673 -1674 -1675 -1676 -1677 -1678 -1679 -1680 -1681 -1682
v -1683 -1684 -1685 -1686 -1687 -1688 -1689 -1690 -1691 -1692 -1693 -1694
v -1695 -1696 -1697 -1698 -1699 1700 1701 1702 1703 1704 1705 1706 1707 1708
v 1709 1710 1711 1712 1713 1714 1715 1716 1717 1718 1719 1720 1721 1722 1723
v 1724 1725 1726 1727 1728 1729 1730 -1731 -1732 -1733 -1734 -1735 -1736 -1737
v -1738 -1739 -1740 -1741 -1742 -1743 -1744 -1745 -1746 -1747 -1748 -1749
v -1750 -1751 -1752 -1753 -1754 -1755 -1756 -1757 -1758 -1759 -1760 -1761
v -1762 -1763 -1764 -1765 -1766 -1767 -1768 -1769 -1770 -1771 -1772 -1773
v -1774 -1775 -1776 -1777 -1778 -1779 1780 1781 1782 1783 1784 1785 1786 1787
v 1788 1789 1790 1791 1792 1793 1794 1795 1796 1797 1798 1799 1800 1801 1802
v 1803 1804 -1805 -1806 -1807 -1808 -1809 -1810 -1811 -1812 -1813 -1814 -1815
v -1816 -1817 -1818 -1819 -1820 -1821 -1822 -1823 -1824 -1825 -1826 -1827
v -1828 -1829 -1830 -1831 -1832 -1833 -1834 -1835 -1836 -1837 -1838 -1839
v -1840 -1841 -1842 -1843 -1844 -1845 -1846 -1847 -1848 -1849 -1850 -1851
v -1852 -1853 -1854 1855 1856 1857 1858 1859 1860 1861 1862 1863 1864 1865
v 1866 1867 1868 1869 1870 1871 1872 1873 1874 1875 1876 1877 1878 -1879 -1880
v -1881 -1882 -1883 -1884 -1885 -1886 -1887 -1888 -1889 -1890 -1891 -1892
v -1893 -1894 -1895 -1896 -1897 -1898 -1899 -1900 -1901 -1902 -1903 -1904
v -1905 -1906 -1907 -1908 -1909 -1910 -1911 -1912 -1913 -1914 -1915 -1916
v -1917 -1918 -1919 -1920 -1921 -1922 -1923 -1924 -1925 -1926 -1927 -1928
v -1929 1930 1931 1932 1933 1934 1935 1936 1937 1938 1939 1940 1941 1942 1943
v 1944 1945 1946 1947 1948 1949 1950 1951 1952 -1953 -1954 -1955 -1956 -1957
v -1958 -1959 -1960 -1961 -1962 -1963 -1964 -1965 -1966 -1967 -1968 -1969
v -1970 -1971 -1972 -1973 -1974 -1975 -1976 -1977 -1978 -1979 -1980 -1981
v -1982 -1983 -1984 -1985 -1986 -1987 -1988 -1989 -1990 -1991 -1992 -1993
v -1994 -1995 -1996 -1997 -1998 -1999 -2000 -2001 -2002 -2003 -2004 2005 2006
v 2007 2008 2009 2010 2011 2012 2013 2014 2015 2016 2017 2018 2019 2020 2021
v 2022 2023 2024 2025 2026 -2027 -2028 -2029 -2030 -2031 -2032 -2033 -2034
v -2035 -2036 -2037 -2038 -2039 -2040 -2041 -2042 -2043 -2044 -2045 -2046
v -2047 -2048 -2049 -2050 -2051 -2052 -2053 -2054 -2055 -2056 -2057 -2058
v -2059 -2060 -2061 -2062 -2063 -2064 -2065 -2066 -2067 -2068 -2069 -2070
v -2071 -2072 -2073 -2074 -2075 -2076 -2077 -2078 -2079 -2080 -2081 -2082 2083
v 2084 2085 2086 2087 2088 2089 2090 2091 2092 2093 2094 2095 2096 2097 2098
v 2099 2100 -2101 -2102 -2103 -2104 -2105 -2106 -2107 -2108 -2109 -2110 -2111
v -2112 -2113 -2114 -2115 -2116 -2117 -2118 -2119 -2120 -2121 -2122 -2123
v -2124 -2125 -2126 -2127 -2128 -2129 -2130 -2131 -2132 -2133 -2134 -2135
v -2136 -2137 -2138 -2139 -2140 -2141 -2142 -2143 -2144 -2145 -2146 -2147
v -2148 -2149 -2150 -2151 -2152 -2153 -2154 -2155 -2156 -2157 2158 2159 2160
v 2161 2162 2163 2164 2165 2166 2167 2168 2169 2170 2171 2172 2173 2174 -2175
v -2176 -2177 -2178 -2179 -2180 -2181 -2182 -2183 -2184 -2185 -2186 -2187
v -2188 -2189 -2190 -2191 -2192 -2193 -2194 -2195 -2196 -2197 -2198 -2199
v -2200 -2201 -2202 -2203 -2204 -2205 -2206 -2207 -2208 -2209 -2210 -2211
v -2212 -2213 -2214 -2215 -2216 -2217 -2218 -2219 -2220 -2221 -2222 -2223
v -2224 -2225 -2226 -2227 -2228 -2229 -2230 -2231 -2232 2233 2234 2235 2236
v 2237 2238 2239 2240 2241 2242 2243 2244 2245 2246 2247 2248 -2249 -2250
v -2251 -2252 -2253 -2254 -2255 -2256 -2257 -2258 -2259 -2260 -2261 -2262
v -2263 -2264 -2265 -2266 -2267 -2268 -2269 -2270 -2271 -2272 -2273 -2274
v -2275 -2276 -2277 -2278 -2279 -2280 -2281 -2282 -2283 -2284 -2285 -2286
v -2287 -2288 -2289 -2290 -2291 -2292 -2293 -2294 -2295 -2296 -2297 -2298
v -2299 -2300 -2301 -2302 -2303 -2304 -2305 -2306 -2307 -2308 -2309 2310 2311
v 2312 2313 2314 2315 2316 2317 2318 2319 2320 2321 2322 -2323 -2324 -2325
v -2326 -2327 -2328 -2329 -2330 -2331 -2332 -2333 -2334 -2335 -2336 -2337
v -2338 -2339 -2340 -2341 -2342 -2343 -2344 -2345 -2346 -2347 -2348 -2349
v -2350 -2351 -2352 -2353 -2354 -2355 -2356 -2357 -2358 -2359 -2360 -2361
v -2362 -2363 -2364 -2365 -2366 -2367 -2368 -2369 -2370 -2371 -2372 -2373
v -2374 -2375 -2376 -2377 -2378 -2379 -2380 -2381 -2382 -2383 -2384 -2385
v -2386 2387 2388 2389 2390 2391 2392 2393 2394 2395 2396 -2397 -2398 -2399
v -2400 -2401 -2402 -2403 -2404 -2405 -2406 -2407 -2408 -2409 -2410 -2411
v -2412 -2413 -2414 -2415 -2416 -2417 -2418 -2419 -2420 -2421 -2422 -2423
v -2424 -2425 -2426 -2427 -2428 -2429 -2430 -2431 -2432 -2433 -2434 -2435
v -2436 -2437 -2438 -2439 -2440 -2441 -2442 -2443 -2444 -2445 -2446 -2447
v -2448 -2449 -2450 -2451 -2452 -2453 -2454 -2455 -2456 -2457 -2458 -2459
v -2460 -2461 2462 2463 2464 2465 2466 2467 2468 2469 2470 -2471 -2472 -2473
v -2474 -2475 -2476 -2477 -2478 -2479 -2480 -2481 -2482 -2483 -2484 -2485
v -2486 -2487 -2488 -2489 -2490 -2491 -2492 -2493 -2494 -2495 -2496 -2497
v -2498 -2499 -2500 -2501 -2502 -2503 -2504 -2505 -2506 -2507 -2508 -2509
v -2510 -2511 -2512 -2513 -2514 -2515 -2516 -2517 -2518 -2519 -2520 -2521
v -2522 -2523 -2524 -2525 -2526 -2527 -2528 -2529 -2530 -2531 -2532 -2533
v -2534 -2535 -2536 2537 2538 2539 2540 2541 2542 2543 2544 -2545 -2546 -2547
v -2548 -2549 -2550 -2551 -2552 -2553 -2554 -2555 -2556 -2557 -2558 -2559
v -2560 -2561 -2562 -2563 -2564 -2565 -2566 -2567 -2568 -2569 -2570 -2571
v -2572 -2573 -2574 -2575 -2576 -2577 -2578 -2579 -2580 -2581 -2582 -2583
v -2584 -2585 -2586 -2587 -2588 -2589 -2590 -2591 -2592 -2593 -2594 -2595
v -2596 -2597 -2598 -2599 -2600 -2601 -2602 -2603 -2604 -2605 -2606 -2607
v -2608 -2609 -2610 -2611 -2612 -2613 2614 2615 2616 2617 2618 -2619 -2620
v -2621 -2622 -2623 -2624 -2625 -2626 -2627 -2628 -2629 -2630 -2631 -2632
v -2633 -2634 -2635 -2636 -2637 -2638 -2639 -2640 -2641 -2642 -2643 -2644
v -2645 -2646 -2647 -2648 -2649 -2650 -2651 -2652 -2653 -2654 -2655 -2656
v -2657 -2658 -2659 -2660 -2661 -2662 -2663 -2664 -2665 -2666 -2667 -2668
v -2669 -2670 -2671 -2672 -2673 -2674 -2675 -2676 -2677 -2678 -2679 -2680
v -2681 -2682 -2683 -2684 -2685 -2686 -2687 -2688 -2689 -2690 -2691 -2692 0
c 
c --- [ run-time profiling ] -------------------------------------------------
c 
c process time taken by individual solving procedures
c (percentage relative to process time for solving)
c 
c       358.44   98.32% search
c       204.91   56.21% stable
c       146.96   40.31% unstable
c         6.58    1.80% walk
c         6.13    1.68% simplify
c         3.13    0.86% subsume
c         1.26    0.35% vivify
c         0.82    0.22% probe
c         0.26    0.07% ternary
c         0.12    0.03% elim
c         0.00    0.00% parse
c         0.00    0.00% lucky
c   =================================
c       364.57  100.00% solve
c 
c last line shows process time for solving
c (percentage relative to total process time)
c 
c --- [ statistics ] ---------------------------------------------------------
c 
c chronological:            557204        18.08 %  of conflicts
c conflicts:               3081140      8451.42    per second
c decisions:               4982786     13667.55    per second
c eliminated:                 2051        76.19 %  of all variables
c fixed:                        81         3.01 %  of all variables
c learned:                 3028627        98.30 %  per conflict
c learned_lits:          129037921       100.00 %  learned literals
c minimized:                     0         0.00 %  learned literals
c shrunken:               41329072        32.03 %  learned literals
c minishrunken:           13652223        10.58 %  learned literals
c propagations:          240690672         0.66 M  per second
c reduced:                 2490997        80.85 %  per conflict
c rephased:                     78     39501.79    interval
c restarts:                  91988        33.50    interval
c stabilizing:                   6        55.70 %  of conflicts
c subsumed:                 420091         6.89 %  of all clauses
c strengthened:              17805         0.29 %  of all clauses
c ternary:                      43         0.05 %  of resolved
c vivified:                    268         0.00 %  of all clauses
c walked:                       25    123245.60    interval
c weakened:                   8797         2.89    average size
c 
c seconds are measured in process time for solving
c 
c --- [ resources ] ----------------------------------------------------------
c 
c total process time since initialization:       364.58    seconds
c total real time since initialization:          364.67    seconds
c maximum resident set size of process:           47.04    MB
c 
c --- [ shutting down ] ------------------------------------------------------
c 
c exit 10
